
Gurobi 9.5.1 (linux64) logging started Mon Jun 27 06:05:46 2022

Set parameter LogFile to value "../results/logs/log_Gowalla_edges_20_20_2022_06_25_16_29.log"
Gurobi Optimizer version 9.5.1 build v9.5.1rc2 (linux64)
Thread count: 8 physical cores, 8 logical processors, using up to 8 threads
Optimize a model with 24219 rows, 393182 columns and 945407 nonzeros
Model fingerprint: 0x0e792cb1
Variable types: 0 continuous, 393182 integer (393182 binary)
Coefficient statistics:
  Matrix range     [1e+00, 2e+01]
  Objective range  [1e+00, 1e+00]
  Bounds range     [1e+00, 1e+00]
  RHS range        [1e+00, 2e+01]
Found heuristic solution: objective 8161.0000000
Presolve removed 24219 rows and 393182 columns
Presolve time: 0.18s
Presolve: All rows and columns removed

Explored 0 nodes (0 simplex iterations) in 0.29 seconds (0.18 work units)
Thread count was 1 (of 8 available processors)

Solution count 1: 8161 

Optimal solution found (tolerance 0.00e+00)
Best objective 8.161000000000e+03, best bound 8.161000000000e+03, gap 0.0000%
